
Gurobi 7.5.2 (linux64) logging started Sat Jun 23 16:34:59 2018

Changed value of parameter LogFile to result/ilp/simNo_7-n_100-m_40-s_4-minVAF_0.05-cov_2000-k_2-fn_0.25-fp_0.0001-na_0.15.ILP.gurobiSolverLog
   Prev: gurobi.log  Default: 
Changed value of parameter TimeLimit to 86400.0
   Prev: 1e+100  Min: 0.0  Max: 1e+100  Default: 1e+100
Optimize a model with 1265601 rows, 330440 columns and 3489120 nonzeros
Variable types: 0 continuous, 330440 integer (330440 binary)
Coefficient statistics:
  Matrix range     [3e-03, 4e+00]
  Objective range  [1e+00, 2e+01]
  Bounds range     [1e+00, 1e+00]
  RHS range        [4e-01, 2e+00]
Found heuristic solution: objective -14673.62505
Presolve removed 341739 rows and 215569 columns (presolve time = 7s) ...
Presolve removed 342201 rows and 215569 columns (presolve time = 10s) ...
Presolve removed 342201 rows and 215569 columns (presolve time = 15s) ...
Presolve removed 342201 rows and 215569 columns (presolve time = 20s) ...
Presolve removed 342201 rows and 215569 columns (presolve time = 25s) ...
Presolve removed 342201 rows and 215569 columns (presolve time = 30s) ...
Presolve removed 342201 rows and 215569 columns (presolve time = 41s) ...
Presolve removed 342201 rows and 215569 columns
Presolve time: 43.47s
Presolved: 923400 rows, 114871 columns, 2560618 nonzeros
Variable types: 0 continuous, 114871 integer (114871 binary)
Presolved: 114871 rows, 1038271 columns, 2675489 nonzeros

Presolve removed 114871 rows and 1038271 columns

Root simplex log...

Iteration    Objective       Primal Inf.    Dual Inf.      Time
       0    4.1317630e+01   0.000000e+00   9.951900e+04     54s
    8675   -1.5736114e+02   0.000000e+00   5.840300e+04     55s
   19505   -2.0209412e+02   0.000000e+00   2.994494e+05     60s
   28625   -2.3252177e+02   0.000000e+00   5.125793e+05     65s
   39455   -2.7072562e+02   0.000000e+00   7.855967e+05     70s
   49715   -2.9197297e+02   0.000000e+00   4.666259e+06     75s
   57695   -3.0304310e+02   0.000000e+00   5.613209e+05     80s
   67385   -3.1598517e+02   0.000000e+00   1.411501e+06     85s
   74795   -3.2498351e+02   0.000000e+00   2.177369e+05     90s
   83915   -3.3923077e+02   0.000000e+00   7.486697e+05     95s
   93035   -3.5106821e+02   0.000000e+00   1.651834e+05    100s
  101585   -3.6127436e+02   0.000000e+00   7.269324e+04    105s
  110705   -3.7180065e+02   0.000000e+00   8.751147e+04    110s
  120965   -3.8482137e+02   0.000000e+00   1.455291e+05    115s
  131432   -3.9799895e+02   0.000000e+00   0.000000e+00    121s
  131432   -3.9799895e+02   0.000000e+00   0.000000e+00    123s

Root relaxation: objective -3.979989e+02, 131432 iterations, 75.25 seconds
Total elapsed time = 181.89s
Total elapsed time = 207.26s
Total elapsed time = 228.77s

    Nodes    |    Current Node    |     Objective Bounds      |     Work
 Expl Unexpl |  Obj  Depth IntInf | Incumbent    BestBd   Gap | It/Node Time

     0     0 -397.99895    0 1813 -14673.625 -397.99895  97.3%     -  236s
H    0     0                    -463.5138991 -397.99895  14.1%     -  315s
     0     0 -400.32630    0 1816 -463.51390 -400.32630  13.6%     -  369s
     0     0 -400.41358    0 1836 -463.51390 -400.41358  13.6%     -  477s
     0     0 -400.55903    0 1855 -463.51390 -400.55903  13.6%     -  487s
     0     0 -400.65694    0 1858 -463.51390 -400.65694  13.6%     -  494s
     0     0 -403.57309    0 1860 -463.51390 -403.57309  12.9%     -  520s
     0     0 -404.04776    0 1874 -463.51390 -404.04776  12.8%     -  603s
     0     0 -404.14661    0 1876 -463.51390 -404.14661  12.8%     -  615s
     0     0 -404.39290    0 1847 -463.51390 -404.39290  12.8%     -  626s
     0     0 -404.39847    0 1833 -463.51390 -404.39847  12.8%     -  635s
     0     0 -406.82282    0 1876 -463.51390 -406.82282  12.2%     -  675s
     0     0 -406.84720    0 1875 -463.51390 -406.84720  12.2%     -  778s
     0     0 -406.84720    0 1872 -463.51390 -406.84720  12.2%     -  786s
     0     0 -407.35408    0 1841 -463.51390 -407.35408  12.1%     -  814s
     0     0 -407.56019    0 1846 -463.51390 -407.56019  12.1%     -  889s
     0     0 -407.56019    0 1846 -463.51390 -407.56019  12.1%     -  897s
     0     0 -408.40263    0 1816 -463.51390 -408.40263  11.9%     -  929s
     0     0 -408.78903    0 1877 -463.51390 -408.78903  11.8%     - 1010s
     0     0 -408.86497    0 1871 -463.51390 -408.86497  11.8%     - 1027s
     0     0 -408.87474    0 1874 -463.51390 -408.87474  11.8%     - 1041s
     0     0 -408.89125    0 1836 -463.51390 -408.89125  11.8%     - 1053s
     0     0 -408.89766    0 1837 -463.51390 -408.89766  11.8%     - 1064s
     0     0 -408.89766    0 1837 -463.51390 -408.89766  11.8%     - 1072s
     0     0 -410.05059    0 1857 -463.51390 -410.05059  11.5%     - 1116s
     0     0 -410.14929    0 1866 -463.51390 -410.14929  11.5%     - 1206s
     0     0 -410.24347    0 1886 -463.51390 -410.24347  11.5%     - 1219s
     0     0 -410.24347    0 1886 -463.51390 -410.24347  11.5%     - 1228s
     0     0 -410.82530    0 1898 -463.51390 -410.82530  11.4%     - 1254s
     0     0 -410.82530    0 1896 -463.51390 -410.82530  11.4%     - 1356s
     0     0 -412.05172    0 1852 -463.51390 -412.05172  11.1%     - 1423s
     0     0 -412.15099    0 1857 -463.51390 -412.15099  11.1%     - 1534s
     0     0 -412.39573    0 1865 -463.51390 -412.39573  11.0%     - 1547s
     0     0 -412.40700    0 1868 -463.51390 -412.40700  11.0%     - 1560s
     0     0 -412.41670    0 1867 -463.51390 -412.41670  11.0%     - 1571s
     0     0 -414.36570    0 1861 -463.51390 -414.36570  10.6%     - 1631s
     0     0 -414.36570    0 1826 -463.51390 -414.36570  10.6%     - 1699s
     0     0 -415.21826    0 1958 -463.51390 -415.21826  10.4%     - 1803s
     0     0 -415.46045    0 1933 -463.51390 -415.46045  10.4%     - 1931s
     0     0 -415.47110    0 1936 -463.51390 -415.47110  10.4%     - 1950s
     0     0 -415.48678    0 1936 -463.51390 -415.48678  10.4%     - 1966s
     0     0 -415.48678    0 1940 -463.51390 -415.48678  10.4%     - 1976s
     0     0 -417.33679    0 1921 -463.51390 -417.33679  10.0%     - 2071s
     0     0 -417.51065    0 1943 -463.51390 -417.51065  9.92%     - 2173s
     0     0 -417.58898    0 1955 -463.51390 -417.58898  9.91%     - 2188s
     0     0 -417.63860    0 1964 -463.51390 -417.63860  9.90%     - 2201s
     0     0 -417.65615    0 1963 -463.51390 -417.65615  9.89%     - 2213s
     0     0 -417.65751    0 1964 -463.51390 -417.65751  9.89%     - 2222s
     0     0 -418.51155    0 1856 -463.51390 -418.51155  9.71%     - 2260s
     0     0 -418.88866    0 1935 -463.51390 -418.88866  9.63%     - 2377s
     0     0 -418.95367    0 1937 -463.51390 -418.95367  9.61%     - 2394s
     0     0 -418.96198    0 1941 -463.51390 -418.96198  9.61%     - 2408s
     0     0 -418.97858    0 1940 -463.51390 -418.97858  9.61%     - 2419s
     0     0 -418.97972    0 1943 -463.51390 -418.97972  9.61%     - 2431s
     0     0 -420.31243    0 1838 -463.51390 -420.31243  9.32%     - 2481s
     0     0 -420.41831    0 1969 -463.51390 -420.41831  9.30%     - 2583s
     0     0 -420.42204    0 1968 -463.51390 -420.42204  9.30%     - 2595s
     0     0 -420.48490    0 1971 -463.51390 -420.48490  9.28%     - 2610s
     0     0 -420.48490    0 1974 -463.51390 -420.48490  9.28%     - 2621s
     0     0 -421.54707    0 1970 -463.51390 -421.54707  9.05%     - 2760s
     0     0 -421.74810    0 1964 -463.51390 -421.74810  9.01%     - 2877s
     0     0 -421.82066    0 1974 -463.51390 -421.82066  9.00%     - 2892s
     0     0 -421.83027    0 1980 -463.51390 -421.83027  8.99%     - 2906s
     0     0 -421.83027    0 1982 -463.51390 -421.83027  8.99%     - 2915s
     0     0 -423.41506    0 1963 -463.51390 -423.41506  8.65%     - 2973s
     0     0 -423.53818    0 1928 -463.51390 -423.53818  8.62%     - 3101s
     0     0 -423.54039    0 1939 -463.51390 -423.54039  8.62%     - 3113s
     0     0 -425.60340    0 1930 -463.51390 -425.60340  8.18%     - 3320s
     0     0 -425.67748    0 1846 -463.51390 -425.67748  8.16%     - 3480s
     0     0 -425.74808    0 1907 -463.51390 -425.74808  8.15%     - 3512s
     0     0 -425.74808    0 1960 -463.51390 -425.74808  8.15%     - 3528s
     0     0 -426.56890    0 1844 -463.51390 -426.56890  7.97%     - 3612s
     0     0 -426.66744    0 1971 -463.51390 -426.66744  7.95%     - 3699s
     0     0 -426.67148    0 1966 -463.51390 -426.67148  7.95%     - 3717s
     0     0 -426.67235    0 1975 -463.51390 -426.67235  7.95%     - 3732s
     0     0 -427.34470    0 1978 -463.51390 -427.34470  7.80%     - 3881s
     0     0 -427.57173    0 1990 -463.51390 -427.57173  7.75%     - 4051s
     0     0 -427.57173    0 1962 -463.51390 -427.57173  7.75%     - 4072s
     0     0 -428.06137    0 2003 -463.51390 -428.06137  7.65%     - 4221s
     0     0 -428.17774    0 1976 -463.51390 -428.17774  7.62%     - 4445s
     0     0 -428.24892    0 1975 -463.51390 -428.24892  7.61%     - 4466s
     0     0 -428.24951    0 1981 -463.51390 -428.24951  7.61%     - 4476s
     0     0 -429.10991    0 1973 -463.51390 -429.10991  7.42%     - 4547s
     0     0 -429.35469    0 1954 -463.51390 -429.35469  7.37%     - 4750s
     0     0 -429.42134    0 1954 -463.51390 -429.42134  7.36%     - 4775s
     0     0 -429.61779    0 1918 -463.51390 -429.61779  7.31%     - 4797s
     0     0 -429.61779    0 1916 -463.51390 -429.61779  7.31%     - 4806s
     0     0 -430.17896    0 1853 -463.51390 -430.17896  7.19%     - 4882s
     0     0 -430.17896    0 1875 -463.51390 -430.17896  7.19%     - 4984s
     0     0 -431.18234    0 1789 -463.51390 -431.18234  6.98%     - 5157s
     0     0 -431.37012    0 1802 -463.51390 -431.37012  6.93%     - 5304s
     0     0 -431.37012    0 1806 -463.51390 -431.37012  6.93%     - 5320s
     0     0 -432.15188    0 1863 -463.51390 -432.15188  6.77%     - 5609s
     0     0 -432.31039    0 1820 -463.51390 -432.31039  6.73%     - 5787s
     0     0 -432.31707    0 1822 -463.51390 -432.31707  6.73%     - 5810s
     0     0 -432.32274    0 1826 -463.51390 -432.32274  6.73%     - 5832s
     0     0 -432.32274    0 1823 -463.51390 -432.32274  6.73%     - 5842s
     0     0 -432.63245    0 1835 -463.51390 -432.63245  6.66%     - 5968s
     0     0 -432.65391    0 1908 -463.51390 -432.65391  6.66%     - 6073s
     0     0 -432.66806    0 1909 -463.51390 -432.66806  6.65%     - 6093s
     0     0 -432.66806    0 1916 -463.51390 -432.66806  6.65%     - 6104s
     0     0 -433.48792    0 1849 -463.51390 -433.48792  6.48%     - 6149s
     0     0 -433.72066    0 1859 -463.51390 -433.72066  6.43%     - 6241s
     0     0 -433.73574    0 1863 -463.51390 -433.73574  6.42%     - 6254s
     0     0 -433.77884    0 1917 -463.51390 -433.77884  6.42%     - 6269s
     0     0 -433.77884    0 1908 -463.51390 -433.77884  6.42%     - 6280s
     0     0 -434.53552    0 1877 -463.51390 -434.53552  6.25%     - 6367s
     0     0 -434.53552    0 1941 -463.51390 -434.53552  6.25%     - 6478s
     0     0 -435.97416    0 1817 -463.51390 -435.97416  5.94%     - 7005s
     0     0 -435.98812    0 1729 -463.51390 -435.98812  5.94%     - 7096s
     0     0 -435.98812    0 1726 -463.51390 -435.98812  5.94%     - 7105s
     0     0 -436.32639    0 1831 -463.51390 -436.32639  5.87%     - 7223s
     0     0 -436.65888    0 1862 -463.51390 -436.65888  5.79%     - 7506s
     0     0 -436.68001    0 1867 -463.51390 -436.68001  5.79%     - 7525s
     0     0 -436.69538    0 1887 -463.51390 -436.69538  5.79%     - 7545s
     0     0 -436.69745    0 1888 -463.51390 -436.69745  5.79%     - 7555s
     0     0 -436.81511    0 1861 -463.51390 -436.81511  5.76%     - 7596s
     0     0 -436.83555    0 1866 -463.51390 -436.83555  5.76%     - 7679s
     0     0 -436.85347    0 1877 -463.51390 -436.85347  5.75%     - 7693s
     0     0 -436.87238    0 1883 -463.51390 -436.87238  5.75%     - 7703s
     0     0 -436.87361    0 1888 -463.51390 -436.87361  5.75%     - 7714s
     0     0 -437.33301    0 1869 -463.51390 -437.33301  5.65%     - 7765s
     0     0 -437.47637    0 1876 -463.51390 -437.47637  5.62%     - 7878s
     0     0 -437.50417    0 1863 -463.51390 -437.50417  5.61%     - 7898s
     0     0 -437.52024    0 1875 -463.51390 -437.52024  5.61%     - 7916s
     0     0 -437.53198    0 1876 -463.51390 -437.53198  5.61%     - 7929s
     0     0 -437.53231    0 1878 -463.51390 -437.53231  5.61%     - 7942s
     0     0 -437.94967    0 1863 -463.51390 -437.94967  5.52%     - 7977s
     0     0 -437.94967    0 1867 -463.51390 -437.94967  5.52%     - 8050s
     0     0 -438.45611    0 1923 -463.51390 -438.45611  5.41%     - 8118s
     0     0 -438.76992    0 1738 -463.51390 -438.76992  5.34%     - 8226s
     0     0 -438.77145    0 1742 -463.51390 -438.77145  5.34%     - 8241s
     0     0 -439.16586    0 1872 -463.51390 -439.16586  5.25%     - 8343s
     0     0 -439.37295    0 1883 -463.51390 -439.37295  5.21%     - 8500s
     0     0 -439.41442    0 1880 -463.51390 -439.41442  5.20%     - 8531s
     0     0 -439.42085    0 1896 -463.51390 -439.42085  5.20%     - 8548s
     0     0 -439.42262    0 1892 -463.51390 -439.42262  5.20%     - 8559s
     0     0 -439.95768    0 1862 -463.51390 -439.95768  5.08%     - 8646s
     0     0 -440.03766    0 1867 -463.51390 -440.03766  5.06%     - 8719s
     0     0 -440.05417    0 1867 -463.51390 -440.05417  5.06%     - 8732s
     0     0 -440.05775    0 1860 -463.51390 -440.05775  5.06%     - 8743s
     0     0 -440.55630    0 1881 -463.51390 -440.55630  4.95%     - 8877s
     0     0 -440.59248    0 1872 -463.51390 -440.59248  4.95%     - 8965s
     0     0 -440.59265    0 1869 -463.51390 -440.59265  4.95%     - 8981s
     0     0 -441.11325    0 1874 -463.51390 -441.11325  4.83%     - 9231s
     0     0 -441.23975    0 1879 -463.51390 -441.23975  4.81%     - 9330s
     0     0 -441.27119    0 1882 -463.51390 -441.27119  4.80%     - 9361s
     0     0 -441.27288    0 1889 -463.51390 -441.27288  4.80%     - 9374s
     0     0 -441.30645    0 1890 -463.51390 -441.30645  4.79%     - 9409s
     0     0 -441.53277    0 1886 -463.51390 -441.53277  4.74%     - 9478s
     0     0 -441.54575    0 1880 -463.51390 -441.54575  4.74%     - 9492s
     0     0 -441.56436    0 1882 -463.51390 -441.56436  4.74%     - 9507s
     0     0 -441.56727    0 1878 -463.51390 -441.56727  4.73%     - 9518s
     0     0 -441.68613    0 1889 -463.51390 -441.68613  4.71%     - 9548s
     0     0 -441.74105    0 1930 -463.51390 -441.74105  4.70%     - 9665s
     0     0 -441.75814    0 1939 -463.51390 -441.75814  4.69%     - 9681s
     0     0 -441.76949    0 1943 -463.51390 -441.76949  4.69%     - 9700s
     0     0 -441.76979    0 1948 -463.51390 -441.76979  4.69%     - 9710s
     0     0 -442.35638    0 1936 -463.51390 -442.35638  4.56%     - 9813s
     0     0 -442.39760    0 1896 -463.51390 -442.39760  4.56%     - 9910s
     0     0 -442.40203    0 1889 -463.51390 -442.40203  4.55%     - 9924s
     0     0 -443.21742    0 1759 -463.51390 -443.21742  4.38%     - 10197s
     0     0 -443.59884    0 1851 -463.51390 -443.59884  4.30%     - 10380s
     0     0 -443.60692    0 1862 -463.51390 -443.60692  4.29%     - 10413s
     0     0 -443.66676    0 1745 -463.51390 -443.66676  4.28%     - 10491s
     0     0 -443.66676    0 1746 -463.51390 -443.66676  4.28%     - 10499s
     0     0 -443.83026    0 1855 -463.51390 -443.83026  4.25%     - 10560s
     0     0 -444.06855    0 1869 -463.51390 -444.06855  4.20%     - 10734s
     0     0 -444.06855    0 1874 -463.51390 -444.06855  4.20%     - 10745s
     0     0 -444.19078    0 1793 -463.51390 -444.19078  4.17%     - 10827s
     0     0 -444.24884    0 1796 -463.51390 -444.24884  4.16%     - 10908s
     0     0 -444.25304    0 1806 -463.51390 -444.25304  4.16%     - 10922s
     0     0 -444.57355    0 1839 -463.51390 -444.57355  4.09%     - 11141s
     0     0 -444.59133    0 1859 -463.51390 -444.59133  4.08%     - 11217s
     0     0 -444.64368    0 1726 -463.51390 -444.64368  4.07%     - 11237s
     0     0 -444.64368    0 1746 -463.51390 -444.64368  4.07%     - 11246s
     0     0 -444.66269    0 1856 -463.51390 -444.66269  4.07%     - 11287s
     0     0 -444.80758    0 1864 -463.51390 -444.80758  4.04%     - 11401s
     0     0 -444.82911    0 1871 -463.51390 -444.82911  4.03%     - 11417s
     0     0 -444.82911    0 1883 -463.51390 -444.82911  4.03%     - 11426s
     0     0 -444.84969    0 1883 -463.51390 -444.84969  4.03%     - 11449s
     0     0 -445.15668    0 1843 -463.51390 -445.15668  3.96%     - 11512s
     0     0 -445.15668    0 1852 -463.51390 -445.15668  3.96%     - 11520s
     0     0 -445.26149    0 1847 -463.51390 -445.26149  3.94%     - 11546s
     0     0 -445.31748    0 1856 -463.51390 -445.31748  3.93%     - 11601s
     0     0 -445.31748    0 1864 -463.51390 -445.31748  3.93%     - 11608s
     0     0 -445.32449    0 1859 -463.51390 -445.32449  3.92%     - 11626s
     0     0 -445.32449    0 1858 -463.51390 -445.32449  3.92%     - 11644s
     0     0 -445.39367    0 1862 -463.51390 -445.39367  3.91%     - 11666s
     0     0 -445.40680    0 1862 -463.51390 -445.40680  3.91%     - 11724s
     0     0 -445.40834    0 1865 -463.51390 -445.40834  3.91%     - 11732s
     0     0 -445.47495    0 1867 -463.51390 -445.47495  3.89%     - 11753s
     0     0 -445.50026    0 1858 -463.51390 -445.50026  3.89%     - 11814s
     0     0 -445.51040    0 1864 -463.51390 -445.51040  3.88%     - 11823s
     0     0 -445.51180    0 1853 -463.51390 -445.51180  3.88%     - 11829s
     0     0 -445.69127    0 1862 -463.51390 -445.69127  3.85%     - 11849s
     0     0 -445.75007    0 1855 -463.51390 -445.75007  3.83%     - 11904s
     0     0 -445.75865    0 1858 -463.51390 -445.75865  3.83%     - 11911s
     0     0 -445.76480    0 1853 -463.51390 -445.76480  3.83%     - 11920s
     0     0 -445.77155    0 1856 -463.51390 -445.77155  3.83%     - 11927s
     0     0 -445.77200    0 1864 -463.51390 -445.77200  3.83%     - 11933s
     0     0 -445.84652    0 1849 -463.51390 -445.84652  3.81%     - 11955s
     0     0 -445.89698    0 1847 -463.51390 -445.89698  3.80%     - 12007s
     0     0 -445.92893    0 1845 -463.51390 -445.92893  3.79%     - 12018s
     0     0 -445.94359    0 1857 -463.51390 -445.94359  3.79%     - 12026s
     0     0 -445.94606    0 1861 -463.51390 -445.94606  3.79%     - 12035s
     0     0 -445.94624    0 1867 -463.51390 -445.94624  3.79%     - 12052s
     0     0 -445.94683    0 1864 -463.51390 -445.94683  3.79%     - 12102s
     0     0 -445.94683    0 1872 -463.51390 -445.94683  3.79%     - 12120s
     0     0 -445.94683    0 1816 -463.51390 -445.94683  3.79%     - 12279s
     0     2 -445.94731    0 1815 -463.51390 -445.94731  3.79%     - 12386s
     1     3 -446.20165    1 1883 -463.51390 -445.94731  3.79%  3175 12404s
     2     4 -448.17653    1 1709 -463.51390 -446.21322  3.73%  6542 12478s
     3     5 -451.06537    2  879 -463.51390 -446.21322  3.73%  5130 12502s
     4     6 -452.01404    3  870 -463.51390 -446.21322  3.73%  4014 12510s
     6     8 -453.17772    5  861 -463.51390 -446.21322  3.73%  2724 12515s
     7     7     cutoff    5      -463.51390 -446.21322  3.73%  3827 12604s
     8     8 -453.17772    6  815 -463.51390 -446.21322  3.73%  3350 12605s
    10    10 -454.34140    8  811 -463.51390 -446.21322  3.73%  2710 12610s
    11     9     cutoff    8      -463.51390 -446.21322  3.73%  2525 12617s
    12    10 -456.08691    9  796 -463.51390 -446.21322  3.73%  2352 12621s
    14    12 -461.32345   10  800 -463.51390 -446.21322  3.73%  2082 12630s
    16    14 -458.42282   12  719 -463.51390 -446.21322  3.73%  1837 12635s
    18    14 -459.47013   13  699 -463.51390 -446.21322  3.73%  1668 12641s
    19    15 -461.91384   14  413 -463.51390 -446.21322  3.73%  1601 12645s
    27    17 -448.11549    2 1787 -463.51390 -446.21519  3.73%  1223 12686s
    28    18 -450.95519    3 1889 -463.51390 -446.21519  3.73%  1344 12740s
    29    19 -456.14789    4  951 -463.51390 -446.21519  3.73%  1337 12753s
    30    18     cutoff    5      -463.51390 -446.21519  3.73%  1406 12775s
    31    17     cutoff    5      -463.51390 -446.21519  3.73%  1422 12790s
    32    18 -452.16271    4 1900 -463.51390 -446.21519  3.73%  1474 12814s
    33    19 -454.47539    5 1842 -463.51390 -446.21519  3.73%  1602 12858s
    34    20 -455.87577    6  968 -463.51390 -446.21519  3.73%  1566 12863s
    35    21 -463.43966    7  893 -463.51390 -446.21519  3.73%  1557 12877s
    38    18     cutoff    7      -463.51390 -446.21519  3.73%  1453 12884s
    39    19 -455.01447    6 1848 -463.51390 -446.21519  3.73%  1438 12890s
    40    20 -456.43617    7 2031 -463.51390 -446.21519  3.73%  1427 12907s
    41    19     cutoff    7      -463.51390 -446.21519  3.73%  1413 12911s
    42    20 -458.28056    8 1819 -463.51390 -446.21519  3.73%  1440 12932s
    44    22 -458.47382   10 1773 -463.51390 -446.21519  3.73%  1385 12939s
    45    23 -459.42631   11 1010 -463.51390 -446.21519  3.73%  1385 12949s
    46    24 -462.19944   12  885 -463.51390 -446.21519  3.73%  1371 12955s
    50    24 -460.45445   13  928 -463.51390 -446.21519  3.73%  1272 12961s
    53    23 -459.58678   13  972 -463.51390 -446.21519  3.73%  1245 12973s
    54    24 -462.47156   14  974 -463.51390 -446.21519  3.73%  1241 12985s
    57    23 -460.16867   14 1037 -463.51390 -446.21519  3.73%  1202 12996s
    58    24 -461.88983   15  972 -463.51390 -446.21519  3.73%  1199 13006s
    61    23 -460.84048   15 1006 -463.51390 -446.21519  3.73%  1177 13021s
    62    24 -460.93079   16 1003 -463.51390 -446.21519  3.73%  1167 13027s
    63    25 -461.06778   17 2187 -463.51390 -446.21519  3.73%  1162 13037s
    64    24     cutoff   17      -463.51390 -446.21519  3.73%  1157 13040s
    68    24 -462.27371   18 2216 -463.51390 -446.21519  3.73%  1122 13052s
    71    23     cutoff   20      -463.51390 -446.21519  3.73%  1077 13055s
    73    23 -453.08241    2 2006 -463.51390 -448.12031  3.32%  1276 13254s
    74    24 -461.35189    3 2131 -463.51390 -448.12031  3.32%  1488 13456s
    75    25 -461.65971    3 1949 -463.51390 -448.12031  3.32%  1539 13498s
    76    24     cutoff    4      -463.51390 -448.12031  3.32%  1530 13510s
    77    23     cutoff    4      -463.51390 -448.12031  3.32%  1515 13515s
    78    22     cutoff    4      -463.51390 -448.12031  3.32%  1610 13566s
    79    21     cutoff    4      -463.51390 -448.12031  3.32%  1596 13571s
    80    22 -456.82431    3 1177 -463.51390 -448.19688  3.30%  1676 13636s
    81    23 -462.06086    4 1176 -463.51390 -448.19688  3.30%  1708 13673s
    82    22     cutoff    5      -463.51390 -448.19688  3.30%  1690 13676s
    84    20     cutoff    4      -463.51390 -448.19688  3.30%  1665 13687s
    85    21 -457.54508    2 1806 -463.51390 -451.07041  2.68%  1758 13757s
    86    22 -461.86383    3 1956 -463.51390 -451.07041  2.68%  1752 13782s
    87    21     cutoff    4      -463.51390 -451.07041  2.68%  1737 13790s
    88    20     cutoff    3      -463.51390 -451.07041  2.68%  1737 13805s
    90    20 -452.36654    3  871 -463.51390 -452.01404  2.48%  1733 13826s
    91    21 -453.20706    4  855 -463.51390 -452.01404  2.48%  1718 13833s
    92    22 -453.71963    5  836 -463.51390 -452.01404  2.48%  1703 13838s
    93    23 -454.20449    6  824 -463.51390 -452.01404  2.48%  1687 13842s
    95    25 -454.78633    8  711 -463.51390 -452.01404  2.48%  1654 13848s
    96    24     cutoff    8      -463.51390 -452.01404  2.48%  1643 13853s
    97    25 -456.53184    9  702 -463.51390 -452.01404  2.48%  1628 13856s
   100    26     cutoff   11      -463.51390 -452.01404  2.48%  1584 13860s
   104    28     cutoff   14      -463.51390 -452.01404  2.48%  1526 13865s
   107    27     cutoff   15      -463.51390 -452.01404  2.48%  1488 13870s
   110    30 -461.76839   17  544 -463.51390 -452.01404  2.48%  1450 13875s
   116    28     cutoff   19      -463.51390 -452.01404  2.48%  1379 13880s
   118    26     cutoff    4      -463.51390 -452.18290  2.44%  1364 13890s
   119    25     cutoff    5      -463.51390 -452.39053  2.40%  1362 13903s
   120    26 -455.64197    4  830 -463.51390 -453.17772  2.23%  1358 13917s
   121    27 -455.95001    5  776 -463.51390 -453.17772  2.23%  1348 13920s
   123    29 -457.11368    7  719 -463.51390 -453.17772  2.23%  1329 13925s
   129    35 -460.02287   13  708 -463.51390 -453.17772  2.23%  1270 13931s
   132    38 -462.93206   16  705 -463.51390 -453.17772  2.23%  1243 13935s
   136    36     cutoff   17      -463.51390 -453.17772  2.23%  1210 13940s
   139    33     cutoff    6      -463.51390 -453.20706  2.22%  1191 13948s
   140    34 -458.27736    5  738 -463.51390 -453.31611  2.20%  1189 13962s
   141    35 -458.85920    6  717 -463.51390 -453.31611  2.20%  1182 13965s
   143    37 -460.60471    8  645 -463.51390 -453.31611  2.20%  1168 13970s
   149    39     cutoff   12      -463.51390 -453.31611  2.20%  1123 13975s
   153    35     cutoff    7      -463.51390 -453.84563  2.09%  1101 13985s
   154    36 -457.23005    6  804 -463.51390 -454.20449  2.01%  1099 13994s
   155    37 -461.18655    7  526 -463.51390 -454.20449  2.01%  1098 14002s
   157    37 -461.76839    8  476 -463.51390 -454.20449  2.01%  1086 14005s
   160    38 -457.88947    8  526 -463.51390 -454.20449  2.01%  1067 14010s
   164    36 -458.47130    9  525 -463.51390 -454.20449  2.01%  1044 14016s
   168    40 -459.63498   13  547 -463.51390 -454.20449  2.01%  1021 14020s
   173    37 -460.21682   14  497 -463.51390 -454.20449  2.01%   996 14025s
   177    37 -461.38049   16  451 -463.51390 -454.20449  2.01%   975 14030s
   182    34     cutoff    7      -463.51390 -454.35501  1.98%   960 14045s
   184    36 -456.08691   10  809 -463.51390 -454.79252  1.88%   952 14052s
   185    37 -456.66875   11  808 -463.51390 -454.79252  1.88%   949 14057s
   186    38 -457.25058   12  791 -463.51390 -454.79252  1.88%   944 14060s
   189    41 -458.41426   15  747 -463.51390 -454.79252  1.88%   933 14065s
   191    43 -460.39251   17  780 -463.51390 -454.79252  1.88%   925 14071s
   194    46 -461.41928   20  552 -463.51390 -454.79252  1.88%   913 14077s
   197    47 -461.96233   22  614 -463.51390 -454.79252  1.88%   900 14081s
   199    49 -462.35022   24  479 -463.51390 -454.79252  1.88%   892 14085s
   205    47 -457.69552    9  624 -463.51390 -455.50507  1.73%   869 14094s
   206    48 -458.27736   10  622 -463.51390 -455.50507  1.73%   865 14095s
   210    52 -462.35022   14  577 -463.51390 -455.50507  1.73%   850 14100s
   217    50     cutoff   10      -463.51390 -455.69840  1.69%   826 14109s
   218    51 -458.85920    5  736 -463.51390 -455.95001  1.63%   824 14115s
   222    55 -460.60471    9  677 -463.51390 -455.95001  1.63%   810 14120s
   228    53     cutoff   10      -463.51390 -455.95001  1.63%   793 14125s
   230    51     cutoff   11      -463.51390 -456.60744  1.49%   789 14133s
   231    50     cutoff    8      -463.51390 -456.66875  1.48%   787 14137s
   233    48     cutoff    7      -463.51390 -457.11368  1.38%   783 14141s
   235    48 -460.02287   10  577 -463.51390 -457.25058  1.35%   780 14147s
   239    52 -460.60471   14  599 -463.51390 -457.25058  1.35%   768 14150s
   242    55 -461.96233   17  608 -463.51390 -457.25058  1.35%   759 14155s
   247    56 -463.31995   20  537 -463.51390 -457.25058  1.35%   745 14161s
   250    53     cutoff   13      -463.51390 -457.69552  1.26%   740 14169s
   251    52     cutoff    9      -463.51390 -457.69552  1.26%   738 14171s
   253    50     cutoff   14      -463.51390 -457.83242  1.23%   735 14177s
   254    51 -461.66260   11  771 -463.51390 -458.22031  1.14%   736 14185s
   259    50     cutoff   13      -463.51390 -458.22031  1.14%   723 14190s
   261    50 -462.48713   15  584 -463.51390 -458.27736  1.13%   721 14197s
   265    46     cutoff   11      -463.51390 -458.27736  1.13%   712 14202s
   268    43     cutoff   12      -463.51390 -458.28428  1.13%   706 14205s
   270    43     cutoff   10      -463.51390 -458.28782  1.13%   725 14277s
   271    42     cutoff   10      -463.51390 -458.28782  1.13%   742 14327s
   272    43 -461.18655    6  468 -463.51390 -458.37666  1.11%   756 14376s
   273    44 -461.76839    7  427 -463.51390 -458.37666  1.11%   756 14388s
   274    43     cutoff    7      -463.51390 -458.37666  1.11%   757 14400s
   275    44 -462.35022    8  440 -463.51390 -458.37666  1.11%   757 14410s
   276    43     cutoff    9      -463.51390 -458.37666  1.11%   759 14419s
   277    42     cutoff    9      -463.51390 -458.37666  1.11%   757 14421s
   278    41     cutoff    8      -463.51390 -458.37666  1.11%   756 14425s
   279    42 -463.24284   10 1029 -463.51390 -458.51316  1.08%   766 14451s
   281    40     cutoff   11      -463.51390 -458.51316  1.08%   762 14455s
   283    38     cutoff   10      -463.51390 -458.66068  1.05%   760 14461s
   284    37     cutoff   16      -463.51390 -458.85920  1.00%   761 14470s
   286    35     cutoff    7      -463.51390 -458.85920  1.00%   778 14527s
   287    34     cutoff    6      -463.51390 -458.99779  0.97%   776 14530s
   288    35 -461.55020   13  757 -463.51390 -459.44103  0.88%   790 14565s
   289    36 -463.15025   14  401 -463.51390 -459.44103  0.88%   792 14576s
   290    35     cutoff   15      -463.51390 -459.44103  0.88%   792 14581s
   292    33     cutoff   14      -463.51390 -459.44103  0.88%   791 14591s
   293    32     cutoff   13      -463.51390 -459.44103  0.88%   790 14596s
   295    30     cutoff   13      -463.51390 -459.47013  0.87%   791 14604s
   296    31 -460.24106   14  666 -463.51390 -460.02287  0.75%   791 14610s
   298    33 -461.40474   16  619 -463.51390 -460.02287  0.75%   787 14616s
   299    34 -461.98657   17  603 -463.51390 -460.02287  0.75%   786 14620s
   300    35 -462.56841   18  598 -463.51390 -460.02287  0.75%   784 14625s
   303    34     cutoff   20      -463.51390 -460.02287  0.75%   777 14630s
   306    31     cutoff   14      -463.51390 -460.02287  0.75%   773 14637s
   307    30     cutoff    8      -463.51390 -460.02287  0.75%   772 14640s
   310    27     cutoff   12      -463.51390 -460.02287  0.75%   769 14647s
   312    25     cutoff   17      -463.51390 -460.24106  0.71%   767 14651s
   314    23     cutoff    9      -463.51390 -460.60471  0.63%   765 14657s
   317    20     cutoff   16      -463.51390 -460.84096  0.58%   760 14661s
   318    19     cutoff   16      -463.51390 -460.99310  0.54%   779 14732s
   320    17     cutoff   19      -463.51390 -461.18655  0.50%   776 14735s
   323    16 -463.37313   11  857 -463.51390 -461.32345  0.47%   774 14747s
   326    13     cutoff   18      -463.51390 -461.32345  0.47%   767 14750s
   327    14 -462.64114   20  309 -463.51390 -461.40474  0.46%   767 14756s
   330    17 -463.12601   23   36 -463.51390 -461.40474  0.46%   760 14760s
   336    11     cutoff   21      -463.51390 -461.57444  0.42%   751 14768s
   337    12 -462.93206   17  467 -463.51390 -461.91384  0.35%   750 14770s
   345     4     cutoff   18      -463.51390 -462.49568  0.22%   735 14775s
   351     2     cutoff   23      -463.51390 -462.93206  0.13%   723 14781s

Cutting planes:
  MIR: 3
  StrongCG: 2
  Zero half: 607

Explored 354 nodes (740643 simplex iterations) in 14782.60 seconds
Thread count was 1 (of 80 available processors)

Solution count 2: -463.514 -14673.6 

Optimal solution found (tolerance 1.00e-04)
Best objective -4.635138990573e+02, best bound -4.635138990573e+02, gap 0.0000%
